
  32    4
  10   10   10   10

   0   0   0   0   0   7 2 3 4 5 7 11 14 
   8  10  10  10  10   5 13 12 9 8 6 
   6  10  10  10  10   4 15 13 12 6 
   3  10  10  10  10   7 22 20 19 18 17 16 9 
   9  10  10  10  10   4 19 16 13 9 
   8  10  10  10  10   9 25 24 22 21 20 19 18 17 16 
   6  10  10  10  10   4 20 19 16 9 
   3  10  10  10  10   2 24 10 
   2  10  10  10  10   5 29 27 25 21 15 
   1  10  10  10  10   5 30 25 21 20 17 
   9  10  10  10  10   4 24 23 21 18 
   4  10  10  10  10   5 31 28 23 22 20 
   1  10  10  10  10   4 28 23 22 20 
   2  10  10  10  10   3 31 20 16 
   3  10  10  10  10   4 31 28 24 23 
  10  10  10  10  10   5 30 29 28 27 26 
   2  10  10  10  10   4 31 28 27 23 
   3  10  10  10  10   3 31 29 27 
   8  10  10  10  10   2 27 23 
   6  10  10  10  10   2 29 27 
   7  10  10  10  10   2 28 26 
   6  10  10  10  10   2 30 29 
   9  10  10  10  10   1 26 
   2  10  10  10  10   1 30 
   3  10  10  10  10   1 26 
   2  10  10  10  10   1 32
   8  10  10  10  10   1 32
   8  10  10  10  10   1 32
   5  10  10  10  10   1 32
   3  10  10  10  10   1 32
   1  10  10  10  10   1 32
   0   0   0   0   0   0 
